12 3
10 6 8
8 5 6
12 7 10
10 6 8
8 5 7
12 7 10
12 10 11
9 5 7
10 6 8
8 5 7
15 9 12
13 7 10
5 7 6
3 4 3
2 4 3
3 6 4
2 4 3
1 3 2
1 2 1
2 5 4
4 6 6
3 5 2
2 3 2
2 6 4
2 3 4 5 10 1 2 4 10 1 5 2
36 33 31 38 34 38 33 25 38 39 30 20
